
Gurobi 9.0.2 (win64) logging started Sun Dec 27 06:56:35 2020

Changed value of parameter logfile to result\SunCable-20201227T0415\scenario_2030_p20_cab1000.log
   Prev:   Default: 
Gurobi Optimizer version 9.0.2 build v9.0.2rc0 (win64)
Optimize a model with 1243974 rows, 762167 columns and 3491691 nonzeros
Model fingerprint: 0x826ea268
Coefficient statistics:
  Matrix range     [1e-07, 3e+05]
  Objective range  [1e+00, 1e+00]
  Bounds range     [0e+00, 0e+00]
  RHS range        [2e-05, 3e+08]
Warning: Model contains large matrix coefficient range
         Consider reformulating model or setting NumericFocus parameter
         to avoid numerical issues.

Concurrent LP optimizer: primal simplex, dual simplex, and barrier
Showing barrier log only...

Presolve removed 1068997 rows and 595935 columns
Presolve time: 2.69s
Presolved: 174977 rows, 280098 columns, 652320 nonzeros

Ordering time: 0.07s

Barrier statistics:
 Dense cols : 5
 AA' NZ     : 6.422e+05
 Factor NZ  : 3.150e+06 (roughly 200 MBytes of memory)
 Factor Ops : 7.040e+07 (less than 1 second per iteration)
 Threads    : 30

                  Objective                Residual
Iter       Primal          Dual         Primal    Dual     Compl     Time
   0  -2.28032392e+16 -1.07293907e+15  6.65e+06 2.60e+04  2.74e+12     3s
   1  -4.95674979e+15 -1.08564610e+15  1.44e+06 4.52e+06  7.75e+11     4s
   2  -1.50716795e+15 -1.02946873e+15  4.41e+05 1.29e+06  2.38e+11     4s
   3  -3.85799167e+14 -9.27567548e+14  1.13e+05 1.88e+05  5.55e+10     4s
   4  -9.21304014e+13 -5.83195492e+14  2.58e+04 4.50e+04  1.33e+10     5s
   5  -2.95598812e+13 -3.38138256e+14  7.68e+03 1.81e+04  4.46e+09     5s
   6  -9.88729114e+12 -1.92834010e+14  2.69e+03 4.47e+03  1.49e+09     5s
   7  -1.84923857e+12 -9.43540881e+13  5.78e+02 5.03e+02  3.34e+08     5s
   8   2.56638662e+11 -1.71701990e+13  1.13e+01 1.48e+01  3.28e+07     5s
   9   1.46099277e+11 -1.85574588e+12  3.80e-01 1.25e+00  3.59e+06     6s
  10   7.29878338e+10 -9.23582308e+11  1.47e-01 4.49e-01  1.77e+06     6s
  11   2.77040265e+10 -2.90393102e+11  3.55e-02 1.12e-08  5.63e+05     6s
  12   1.27378063e+10 -1.72073324e+11  9.68e-03 1.12e-08  3.26e+05     7s
  13   1.10529889e+10 -3.22415554e+10  7.26e-03 1.49e-08  7.66e+04     7s
  14   1.06497683e+10 -2.06460915e+10  6.43e-03 1.49e-08  5.54e+04     7s
  15   7.17783689e+09 -4.76108452e+09  1.93e-03 1.49e-08  2.11e+04     8s
  16   6.39740378e+09  8.25963105e+08  9.64e-04 1.12e-08  9.83e+03     8s
  17   6.01540125e+09  3.40717924e+09  5.40e-04 7.45e-09  4.60e+03     8s
  18   5.72799871e+09  5.12720659e+09  2.48e-04 4.66e-09  1.06e+03     8s
  19   5.65027404e+09  5.23115695e+09  1.72e-04 3.73e-09  7.39e+02     9s
  20   5.62647315e+09  5.27821681e+09  1.50e-04 2.79e-09  6.14e+02     9s
  21   5.59880501e+09  5.32693110e+09  1.22e-04 2.79e-09  4.80e+02     9s
  22   5.58042969e+09  5.35400043e+09  1.04e-04 1.86e-09  3.99e+02    10s
  23   5.55517957e+09  5.40758073e+09  7.67e-05 1.86e-09  2.60e+02    10s
  24   5.53169897e+09  5.43589317e+09  4.86e-05 1.86e-09  1.69e+02    10s
  25   5.51425596e+09  5.45908809e+09  2.66e-05 1.86e-09  9.73e+01    11s
  26   5.50311286e+09  5.47329129e+09  1.18e-05 1.86e-09  5.26e+01    11s
  27   5.49814651e+09  5.48034049e+09  5.40e-06 1.86e-09  3.14e+01    11s
  28   5.49640987e+09  5.48471604e+09  3.18e-06 1.86e-09  2.06e+01    12s
  29   5.49505486e+09  5.48782817e+09  1.49e-06 1.86e-09  1.27e+01    12s
  30   5.49445259e+09  5.48975067e+09  7.68e-07 1.86e-09  8.27e+00    12s
  31   5.49409251e+09  5.49215235e+09  3.53e-07 1.86e-09  3.41e+00    12s
  32   5.49398443e+09  5.49286126e+09  2.39e-07 1.86e-09  1.98e+00    13s
  33   5.49384192e+09  5.49323596e+09  1.83e-07 1.86e-09  1.07e+00    13s
  34   5.49379204e+09  5.49352635e+09  1.08e-07 1.86e-09  4.67e-01    13s
  35   5.49376586e+09  5.49366070e+09  2.01e-07 1.86e-09  1.85e-01    13s
  36   5.49376039e+09  5.49375041e+09  2.45e-07 2.79e-09  1.76e-02    13s
  37   5.49375961e+09  5.49375753e+09  7.66e-09 3.22e-09  3.66e-03    14s
  38   5.49375956e+09  5.49375956e+09  1.60e-08 3.48e-09  2.02e-07    14s
  39   5.49375956e+09  5.49375956e+09  3.64e-12 2.82e-09  4.87e-12    14s

Barrier solved model in 39 iterations and 14.41 seconds
Optimal objective 5.49375956e+09

Crossover log...

   18805 DPushes remaining with DInf 0.0000000e+00                15s
     411 DPushes remaining with DInf 0.0000000e+00                15s
       0 DPushes remaining with DInf 0.0000000e+00                15s
Warning: Markowitz tolerance tightened to 0.5

   78780 PPushes remaining with PInf 0.0000000e+00                15s
       0 PPushes remaining with PInf 0.0000000e+00                20s

  Push phase complete: Pinf 0.0000000e+00, Dinf 4.6022990e-09     20s

Iteration    Objective       Primal Inf.    Dual Inf.      Time
   80349    5.4937596e+09   0.000000e+00   0.000000e+00     21s

Solved with barrier
Solved in 80349 iterations and 21.25 seconds
Optimal objective  5.493759557e+09
Warning: unscaled primal violation = 0.000871184 and residual = 0.000871184
